
******************************************************************************
This program contains Ipopt, a library for large-scale nonlinear optimization.
 Ipopt is released as open source code under the Eclipse Public License (EPL).
         For more information visit http://projects.coin-or.org/Ipopt
******************************************************************************

This is Ipopt version 3.12.6, running with linear solver ma57.

Number of nonzeros in equality constraint Jacobian...:      126
Number of nonzeros in inequality constraint Jacobian.:       30
Number of nonzeros in Lagrangian Hessian.............:       24

Total number of variables............................:       65
                     variables with only lower bounds:        9
                variables with lower and upper bounds:       56
                     variables with only upper bounds:        0
Total number of equality constraints.................:       41
Total number of inequality constraints...............:       18
        inequality constraints with only lower bounds:        3
   inequality constraints with lower and upper bounds:        0
        inequality constraints with only upper bounds:       15

iter    objective    inf_pr   inf_du lg(mu)  ||d||  lg(rg) alpha_du alpha_pr  ls
   0  5.4570177e+01 1.80e+04 9.66e-01  -1.0 0.00e+00    -  0.00e+00 0.00e+00   0
   1  5.4567844e+01 1.80e+04 1.13e+00  -1.0 2.51e+03    -  9.78e-04 4.58e-04h  1
   2  5.4569293e+01 1.80e+04 1.97e+00  -1.0 2.66e+03    -  4.30e-04 3.45e-04h  1
   3  5.4566977e+01 1.80e+04 1.41e+00  -1.0 2.75e+03    -  1.75e-04 5.53e-04h  1
   4  5.4568775e+01 1.80e+04 6.46e+00  -1.0 2.83e+03    -  8.39e-04 2.03e-04h  1
   5  5.4579023e+01 1.79e+04 5.25e+00  -1.0 2.82e+03    -  6.32e-04 7.35e-04h  1
   6  5.4601656e+01 1.79e+04 8.21e+00  -1.0 2.81e+03    -  1.03e-03 8.31e-04h  1
   7  5.4667693e+01 1.79e+04 1.83e+01  -1.0 2.76e+03    -  7.41e-05 1.37e-03h  1
   8  5.4766581e+01 1.79e+04 6.08e+01  -1.0 2.55e+03    -  2.43e-04 1.73e-03h  1
   9  5.5142323e+01 1.78e+04 1.06e+02  -1.0 1.96e+03    -  2.07e-04 2.36e-03f  1
iter    objective    inf_pr   inf_du lg(mu)  ||d||  lg(rg) alpha_du alpha_pr  ls
  10  5.5274422e+01 1.78e+04 1.12e+02  -1.0 2.69e+03    -  2.18e-04 4.49e-04h  1
  11  5.5320855e+01 1.78e+04 1.11e+02  -1.0 2.77e+03    -  4.49e-04 2.64e-04h  1
  12  5.5515040e+01 1.78e+04 1.17e+02  -1.0 2.78e+03    -  1.73e-04 1.06e-03f  1
  13  5.5520729e+01 1.78e+04 1.13e+02  -1.0 2.75e+03    -  2.42e-04 2.78e-05h  1
  14  5.6020006e+01 1.78e+04 1.36e+02  -1.0 2.77e+03    -  2.17e-05 2.37e-03f  1
  15  5.6076276e+01 1.77e+04 1.37e+02  -1.0 2.77e+03    -  2.52e-04 3.16e-04h  1
  16r 5.6076276e+01 1.77e+04 9.99e+02   4.2 0.00e+00    -  0.00e+00 3.22e-07R  5
  17r 6.0915343e+01 1.77e+04 6.63e+03   4.2 1.69e+05    -  1.16e-03 3.40e-05f  1
  18r 6.0919092e+01 1.76e+04 6.84e+03   2.2 8.86e+04    -  1.59e-02 1.35e-03f  1
  19r 6.0922492e+01 1.74e+04 6.83e+03   2.2 2.21e+05    -  1.42e-03 1.11e-03f  1
iter    objective    inf_pr   inf_du lg(mu)  ||d||  lg(rg) alpha_du alpha_pr  ls
  20r 6.0928586e+01 1.69e+04 6.83e+03   2.2 2.18e+05    -  3.38e-03 1.87e-03f  1
  21r 6.1732176e+01 1.70e+04 3.59e+03   2.2 9.94e+00   2.0 4.75e-01 3.87e-01f  1
  22r 6.3313314e+01 1.70e+04 9.99e+02   2.2 3.75e+00   2.4 9.72e-01 1.00e+00f  1
  23r 6.4611178e+01 1.70e+04 1.04e+03   2.2 1.46e+00   2.9 1.00e+00 1.00e+00f  1
  24r 6.4863337e+01 1.70e+04 1.00e+03   1.5 4.23e+00   2.4 1.00e+00 1.00e+00f  1
  25r 6.5123547e+01 1.70e+04 1.00e+03   1.5 1.38e+01   1.9 3.04e-01 1.27e-01f  1
  26r 6.5333480e+01 1.70e+04 1.01e+03   1.5 5.20e+00   2.3 1.00e+00 1.83e-01f  1
  27r 6.6109231e+01 1.70e+04 1.01e+03   1.5 1.49e+01   1.8 2.87e-01 1.47e-01f  1
  28r 6.8110335e+01 1.70e+04 1.56e+03   1.5 2.01e+02   1.4 4.43e-02 6.25e-02f  1
  29r 7.1095867e+01 1.70e+04 1.49e+03   1.5 1.28e+02   0.9 6.59e-02 3.89e-02f  1
iter    objective    inf_pr   inf_du lg(mu)  ||d||  lg(rg) alpha_du alpha_pr  ls
  30r 7.3682645e+01 1.70e+04 1.44e+03   1.5 3.86e+02   0.4 6.18e-02 2.58e-02f  1
  31r 7.4799082e+01 1.69e+04 1.42e+03   1.5 1.13e+03  -0.1 1.69e-02 1.26e-02f  1
  32r 7.5262778e+01 1.69e+04 1.41e+03   1.5 3.99e+03  -0.5 7.63e-03 5.15e-03f  1
  33r 7.7158426e+01 1.69e+04 1.32e+03   1.5 1.25e+03  -0.1 6.27e-02 3.09e-02f  1
  34r 7.7267023e+01 1.69e+04 1.31e+03   1.5 4.62e+02   0.3 8.28e-02 3.84e-03f  1
  35r 7.7298750e+01 1.68e+04 1.28e+03   1.5 2.79e+03  -0.2 4.24e-02 1.85e-02f  1
  36r 7.7243202e+01 1.68e+04 1.28e+03   1.5 5.47e+03  -0.6 1.12e-02 1.06e-03f  1
  37r 7.6272808e+01 1.67e+04 1.28e+03   1.5 2.58e+04  -1.1 3.49e-03 5.68e-03f  1
  38r 7.6256358e+01 1.67e+04 1.28e+03   1.5 5.38e+03  -0.7 1.20e-02 3.64e-04f  1
  39r 7.6065024e+01 1.67e+04 1.29e+03   1.5 7.53e+04  -1.2 1.38e-04 1.15e-03f  1
iter    objective    inf_pr   inf_du lg(mu)  ||d||  lg(rg) alpha_du alpha_pr  ls
  40r 7.5954861e+01 1.67e+04 1.29e+03   1.5 8.88e+04  -1.6 5.72e-03 4.20e-04f  1
  41r 7.4664849e+01 1.65e+04 1.28e+03   1.5 1.89e+04  -1.2 2.02e-02 8.82e-03f  1
  42r 7.4258953e+01 1.64e+04 1.27e+03   1.5 6.90e+04  -1.7 2.13e-04 2.30e-03f  1
  43r 7.4146489e+01 1.64e+04 1.27e+03   1.5 4.18e+05  -2.2 1.02e-04 5.66e-04f  1
  44r 7.4080174e+01 1.63e+04 1.27e+03   1.5 6.32e+04  -1.7 1.02e-02 4.38e-04f  1
  45r 7.3860265e+01 1.62e+04 1.27e+03   1.5 2.22e+05  -2.2 1.02e-03 1.14e-03f  1
  46r 7.3739932e+01 1.61e+04 1.27e+03   1.5 2.14e+05    -  7.23e-03 5.85e-04f  1
  47r 7.1924415e+01 1.41e+04 1.26e+03   1.5 2.14e+05    -  3.54e-03 9.17e-03f  1
  48  7.1921006e+01 1.41e+04 4.57e+01  -1.0 1.51e+03    -  5.54e-05 3.32e-04h  1
  49  7.1920586e+01 1.41e+04 4.57e+01  -1.0 2.37e+03    -  2.37e-05 1.50e-04f  1
iter    objective    inf_pr   inf_du lg(mu)  ||d||  lg(rg) alpha_du alpha_pr  ls
  50  7.2002309e+01 1.41e+04 8.89e+01  -1.0 2.47e+03    -  1.46e-04 4.90e-03f  1
  51  7.2186376e+01 1.39e+04 9.72e+01  -1.0 2.48e+03    -  5.04e-03 8.60e-03h  1
  52  7.2296589e+01 1.39e+04 9.70e+01  -1.0 2.44e+03    -  1.20e-02 3.27e-03h  1
  53  7.2260585e+01 1.39e+04 1.21e+02  -1.0 2.37e+03    -  1.52e-02 1.79e-03h  1
  54  7.2256940e+01 1.38e+04 1.20e+02  -1.0 2.32e+03    -  1.10e-03 1.39e-03h  1
  55  7.2242573e+01 1.38e+04 1.24e+02  -1.0 6.05e+03    -  2.56e-04 2.16e-03h  1
  56  7.2242410e+01 1.38e+04 1.20e+02  -1.0 5.75e+03    -  4.48e-03 2.44e-05h  1
  57  7.2242819e+01 1.38e+04 1.44e+02  -1.0 2.32e+03    -  1.27e-03 2.46e-04h  1
  58  7.2442755e+01 1.37e+04 1.19e+02  -1.0 4.76e+03    -  6.22e-05 4.65e-03f  1
  59  7.3038922e+01 1.37e+04 1.18e+02  -1.0 5.42e+03    -  5.15e-03 6.61e-03h  1
iter    objective    inf_pr   inf_du lg(mu)  ||d||  lg(rg) alpha_du alpha_pr  ls
  60  7.3260603e+01 1.36e+04 1.15e+02  -1.0 4.81e+03    -  1.76e-03 3.55e-03h  1
  61  7.4213272e+01 1.34e+04 1.03e+02  -1.0 4.88e+03    -  5.22e-03 1.48e-02h  1
  62  7.7090455e+01 1.25e+04 1.23e+02  -1.0 3.98e+03    -  4.62e-02 6.51e-02h  1
  63  7.7524464e+01 1.24e+04 1.23e+02  -1.0 4.06e+03    -  5.29e-03 1.10e-02h  1
  64  7.7529903e+01 1.24e+04 1.23e+02  -1.0 3.93e+03    -  3.62e-03 1.46e-04h  1
  65  7.9764360e+01 1.17e+04 1.16e+02  -1.0 3.95e+03    -  6.49e-04 5.91e-02h  1
  66  8.0171536e+01 1.15e+04 1.14e+02  -1.0 3.10e+03    -  1.50e-01 1.62e-02h  1
  67  8.6668133e+01 8.89e+03 8.82e+01  -1.0 3.04e+03    -  1.56e-01 2.25e-01h  1
  68  8.7113620e+01 8.81e+03 1.15e+02  -1.0 2.58e+03    -  9.34e-02 8.96e-03h  1
  69  8.7196088e+01 8.78e+03 9.00e+01  -1.0 2.07e+03    -  8.04e-04 2.58e-03h  1
iter    objective    inf_pr   inf_du lg(mu)  ||d||  lg(rg) alpha_du alpha_pr  ls
  70  8.7196233e+01 8.77e+03 9.17e+01  -1.0 2.03e+03    -  1.27e-03 1.22e-03h  1
  71  8.7148291e+01 8.72e+03 8.65e+01  -1.0 2.09e+03    -  1.13e-04 6.35e-03h  1
  72  8.6803639e+01 8.41e+03 2.10e+02  -1.0 2.23e+03    -  7.82e-03 3.43e-02h  1
  73  8.5653110e+01 8.04e+03 2.14e+02  -1.0 1.96e+03    -  1.61e-02 4.38e-02h  1
  74  8.5634644e+01 8.04e+03 8.62e+02  -1.0 1.84e+03    -  3.75e-02 8.72e-04h  1
  75  8.5418377e+01 7.85e+03 3.23e+02  -1.0 2.32e+03    -  5.41e-04 2.33e-02h  1
  76  8.5414783e+01 7.83e+03 3.76e+02  -1.0 2.46e+03    -  8.23e-03 1.85e-03h  1
  77  8.5203219e+01 7.17e+03 2.95e+02  -1.0 2.12e+03    -  1.37e-03 8.50e-02f  1
  78  8.5200697e+01 7.16e+03 3.27e+02  -1.0 2.29e+03    -  2.44e-01 9.72e-04h  1
  79  8.5128558e+01 6.72e+03 3.06e+02  -1.0 2.53e+03    -  3.87e-02 6.15e-02h  1
iter    objective    inf_pr   inf_du lg(mu)  ||d||  lg(rg) alpha_du alpha_pr  ls
  80  8.5078793e+01 6.25e+03 2.57e+02  -1.0 2.41e+03    -  4.85e-01 6.95e-02h  1
  81  8.5674911e+01 4.78e+03 3.37e+02  -1.0 2.25e+03    -  1.22e-01 2.32e-01h  1
  82  8.6608198e+01 4.47e+03 3.00e+02  -1.0 1.85e+03    -  1.17e-02 6.61e-02h  1
  83  8.4531217e+01 1.74e+03 1.69e+02  -1.0 2.98e+03    -  7.06e-03 6.09e-01h  1
  84  8.4481392e+01 1.73e+03 1.29e+02  -1.0 8.57e+02    -  4.26e-01 1.02e-02h  1
  85  8.4960399e+01 1.53e+03 1.11e+02  -1.0 7.69e+02    -  2.78e-02 1.12e-01h  1
  86  8.5186908e+01 1.43e+03 1.04e+02  -1.0 6.90e+02    -  9.37e-02 6.53e-02h  1
  87  8.9031133e+01 7.25e+02 4.67e+01  -1.0 6.48e+02    -  4.47e-01 4.92e-01h  1
  88  9.3675004e+01 4.39e+00 3.05e+02  -1.0 3.46e+02    -  2.48e-01 1.00e+00h  1
  89  9.2622716e+01 2.53e-01 9.76e+01  -1.0 6.27e+01    -  8.46e-01 1.00e+00h  1
iter    objective    inf_pr   inf_du lg(mu)  ||d||  lg(rg) alpha_du alpha_pr  ls
  90  9.2546034e+01 2.01e-01 5.96e+01  -1.0 8.90e+01    -  3.81e-01 2.29e-01h  1
  91  9.3054351e+01 9.77e-02 3.20e+01  -1.0 7.98e+01    -  4.98e-01 1.00e+00f  1
  92  9.2499945e+01 1.90e+00 1.44e+01  -1.0 1.59e+02    -  5.58e-01 8.85e-01h  1
  93  9.2824755e+01 1.55e+00 1.12e+00  -1.0 2.43e+02    -  9.33e-01 7.23e-01f  1
  94  9.2580502e+01 1.23e+00 4.60e-01  -1.0 1.70e+03    -  2.75e-01 1.00e+00f  1
  95  9.2682052e+01 6.06e-01 5.08e-04  -1.0 2.00e+03    -  1.00e+00 1.00e+00h  1
  96  9.1720335e+01 1.36e-01 3.34e-01  -1.7 5.38e+02    -  8.11e-01 1.00e+00h  1
  97  9.1456107e+01 1.17e-01 9.80e-04  -1.7 8.10e+02    -  1.00e+00 1.00e+00h  1
  98  9.1130237e+01 3.63e-02 1.29e-03  -2.5 8.52e+01    -  1.00e+00 1.00e+00h  1
  99  9.1115132e+01 3.34e-02 8.15e-06  -2.5 3.63e+02    -  1.00e+00 1.00e+00h  1
iter    objective    inf_pr   inf_du lg(mu)  ||d||  lg(rg) alpha_du alpha_pr  ls
 100  9.1115252e+01 1.15e-02 8.25e-07  -2.5 1.26e+01    -  1.00e+00 1.00e+00h  1
 101  9.1059744e+01 1.23e-03 3.30e-05  -3.8 4.81e+00    -  1.00e+00 1.00e+00h  1
 102  9.1056279e+01 5.84e-06 9.39e-08  -5.7 3.22e-01    -  1.00e+00 1.00e+00h  1
 103  9.1056240e+01 6.72e-10 1.52e-11  -8.6 3.49e-03    -  1.00e+00 1.00e+00h  1

Number of Iterations....: 103

                                   (scaled)                 (unscaled)
Objective...............:   9.1056239573845986e+01    9.1056239573845986e+01
Dual infeasibility......:   1.5247780825763197e-11    1.5247780825763197e-11
Constraint violation....:   6.7234395828563720e-10    6.7234395828563720e-10
Complementarity.........:   3.8943352257914461e-09    3.8943352257914461e-09
Overall NLP error.......:   3.8943352257914461e-09    3.8943352257914461e-09


Number of objective function evaluations             = 109
Number of objective gradient evaluations             = 74
Number of equality constraint evaluations            = 109
Number of inequality constraint evaluations          = 109
Number of equality constraint Jacobian evaluations   = 105
Number of inequality constraint Jacobian evaluations = 105
Number of Lagrangian Hessian evaluations             = 103
Total CPU secs in IPOPT (w/o function evaluations)   =      0.040
Total CPU secs in NLP function evaluations           =      0.000

EXIT: Optimal Solution Found.

************************ CUTEst statistics ************************


 Package used            :  IPOPT
 Problem                 :  CORE1     
 # variables             =              65
 # constraints           =              59
 # objective functions   =        0.1840000E+03
 # objective gradients   =        0.7500000E+02
 # objective Hessians    =        0.1030000E+03
 # Hessian-vector prdct  =        0.0000000E+00
 # constraints functions =        0.2160000E+03
 # constraints gradients =        0.1070000E+03
 # constraints Hessians  =        0.1030000E+03
 Exit code               =               0
 Final f                 =   0.9105624E+02
 Set up time             =            0.00 seconds
 Solve time              =            0.18 seconds


******************************************************************

System Time =       0.0460000001 s.
